
  32    4
  10   10   10   10

   0   0   0   0   0   1 2 
   2   0   1   1   1   2 10 3 
   7   1   0   3   3   3 31 14 4 
   1   4   4   0   5   1 5 
   4   3   3   0   7   1 6 
   7   3   0   2   6   2 30 7 
   6   0   3   5   5   2 20 8 
   3   5   0   4   1   1 9 
  10   1   5   0   4   1 11 
   5   4   5   0   3   1 11 
   5   7   4   2   0   3 29 28 12 
   5   3   0   2   7   1 13 
   4   0   5   5   4   1 15 
   2   4   6   4   0   2 30 17 
   4   0   2   3   4   1 16 
   2   6   0   5   2   1 17 
   6   5   6   6   0   3 27 26 18 
   9   7   8   4   0   1 19 
   9   5   3   8   0   1 21 
   8   0   4   3   5   1 21 
   6   5   0   3   1   1 22 
   3   6   2   0   7   1 23 
   3   0   5   4   3   1 24 
   4   3   4   3   0   1 25 
   9   2   0   8   4   1 32
  10   5   3   0   6   1 32
   4   2   5   0   4   1 32
   4   4   4   3   0   1 32
  10   0   3   6   3   1 32
   3   4   0   6   3   1 32
   8   3   3   2   0   1 32
   0   0   0   0   0   0 
